0 0 0 0
0 1 1 0
0 2 2 0
0 3 0 0
0 4 0 4
0 5 0 5
0 6 0 18
0 7 1 5
0 8 0 13
0 9 0 7
0 10 0 10
0 11 0 14
0 12 0 11
0 13 0 10
0 14 0 14
0 15 1 7
0 16 0 10
0 17 0 18
0 18 0 7
0 19 1 25
0 20 2 16
0 21 0 17
0 22 1 17
0 23 0 16
0 24 0 24
0 25 0 27
0 26 0 25
0 27 1 28
0 28 1 31
0 29 2 25
0 30 0 30
0 31 0 34
